
  22   10
  10   10   10   10   10   10   10   10   10   10

   0   0   0   0   0   0   0   0   0   0   0  16 2 3 4 5 10 11 12 13 14 15 16 17 18 19 20 21 
   6   0   0   0  10   0   0   0   0   0   0   2 9 6 
   4  10   0   0   0   0   0   0   0   0   0   2 8 6 
   5   0   0   0  10   0   0   0   0   0   0   1 7 
   8   0   0  10   0   0   0   0   0   0   0   1 6 
   5   0   0   0   0   0   0   0   0  10   0   1 22
   1  10   0   0   0   0   0   0   0   0   0   1 22
   1  10   0   0   0   0   0   0   0   0   0   1 22
   3   0   0   0   0   0   0   0   0  10   0   1 22
   3  10   0   0   0   0   0   0   0   0   0   1 22
   9   0   0   0   0   0   0  10   0   0   0   1 22
  10   0   0   0   0   0   0   0   0   0  10   1 22
   5   0   0   0   0   0  10   0   0   0   0   1 22
  10   0   0  10   0   0   0   0   0   0   0   1 22
  10   0   0   0   0   0  10   0   0   0   0   1 22
   9   0   0   0   0   0   0   0   0   0  10   1 22
   6   0   0   0   0   0  10   0   0   0   0   1 22
   6   0   0   0   0  10   0   0   0   0   0   1 22
   5   0   0   0   0   0   0   0  10   0   0   1 22
   4  10   0   0   0   0   0   0   0   0   0   1 22
   7   0   0   0   0   0   0  10   0   0   0   1 22
   0   0   0   0   0   0   0   0   0   0   0   0 
